<instance format="XCSP3" type="COP">
  <variables>
    <array id="x" size="[50]"> 0 1 </array>
  </variables>
  <constraints>
    <sum>
      <list> x[] </list>
      <coeffs> 11 49 30 48 16 4 42 12 20 5 28 28 24 13 46 45 35 26 42 21 44 39 25 48 3 11 4 33 43 24 46 46 38 38 3 13 26 4 39 36 11 26 6 31 49 42 25 37 13 13 </coeffs>
      <condition> (le,200) </condition>
    </sum>
  </constraints>
  <objectives>
    <maximize type="sum">
      <list> x[] </list>
      <coeffs> 20 78 17 47 8 17 9 38 44 48 88 89 6 59 9 18 52 19 59 19 39 73 58 52 27 81 98 63 36 21 68 74 18 70 6 53 90 44 2 42 24 81 69 15 17 24 58 23 6 72 </coeffs>
    </maximize>
  </objectives>
</instance>
